1720420
0,46,53,12,3,19,64,44,16,26,8,35,58,15,62,47,1,57,14,7,67,34,61,50,38,36,52,27,49,43,9,17,13,56,32,51,21,30,42,45,33,54,25,65,10,6,37,66,63,29,5,40,24,28,4,22,59,18,48,39,55,31,11,41,60,20,2,23